#######################
Slurm job id: 17497813_272
Running on machine: p29
Running cmd: /nfs/shared/static-builds/gurobi1202 SOFTMEMLIMIT=125 MIPFocus=0 Presolve=1 TimeLimit=300 seed=1 /nfs/models/miplib2010/k16x240.mps.bz2
#######################
Set parameter TimeLimit to value 300
Set parameter SoftMemLimit to value 125
Set parameter LogFile to value 1202-MIPFocus0-Presolve1-TimeLimit300-k16x240-1.log
Set parameter Presolve to value 1
Set parameter Seed to value 1
Using license file /opt/gurobi/gurobi.lic

Gurobi Optimizer version 12.0.2 build v12.0.2rc0 (linux64 - "Ubuntu 22.04.4 LTS")
Copyright (c) 2025, Gurobi Optimization, LLC

Read MPS format model from file /nfs/models/miplib2010/k16x240.mps.bz2
Reading time = 0.01 seconds
k16x240: 256 rows, 480 columns, 960 nonzeros

Using Gurobi shared library /nfs/shared/static-builds/gurobi1202

CPU model: Intel(R) Xeon(R) E-2388G CPU @ 3.20GHz, instruction set [SSE2|AVX|AVX2|AVX512]
Thread count: 8 physical cores, 16 logical processors, using up to 16 threads

Non-default parameters:
TimeLimit  300
SoftMemLimit  125
Presolve  1
Seed  1

Optimize a model with 256 rows, 480 columns and 960 nonzeros
Model fingerprint: 0x4e80885f
Variable types: 240 continuous, 240 integer (240 binary)
Coefficient statistics:
  Matrix range     [1e+00, 1e+03]
  Objective range  [1e+00, 1e+03]
  Bounds range     [1e+00, 1e+03]
  RHS range        [4e+00, 4e+02]
Found heuristic solution: objective 18783.000000
Presolve time: 0.00s
Presolved: 256 rows, 480 columns, 960 nonzeros
Variable types: 240 continuous, 240 integer (240 binary)

Root relaxation: objective 2.769838e+03, 51 iterations, 0.00 seconds (0.00 work units)

    Nodes    |    Current Node    |     Objective Bounds      |     Work
 Expl Unexpl |  Obj  Depth IntInf | Incumbent    BestBd   Gap | It/Node Time

     0     0 2769.83800    0   14 18783.0000 2769.83800  85.3%     -    0s
H    0     0                    11359.000000 2769.83800  75.6%     -    0s
H    0     0                    11342.000000 2769.83800  75.6%     -    0s
H    0     0                    11195.000000 2769.83800  75.3%     -    0s
H    0     0                    11088.000000 2769.83800  75.0%     -    0s
H    0     0                    11074.000000 8084.69631  27.0%     -    0s
     0     0 8084.69631    0   26 11074.0000 8084.69631  27.0%     -    0s
H    0     0                    10916.000000 8126.71248  25.6%     -    0s
     0     0 8528.16906    0   24 10916.0000 8528.16906  21.9%     -    0s
H    0     0                    10896.000000 8539.49533  21.6%     -    0s
     0     0 8539.49533    0   34 10896.0000 8539.49533  21.6%     -    0s
     0     0 8548.03675    0   29 10896.0000 8548.03675  21.5%     -    0s
H    0     0                    10806.000000 8739.20556  19.1%     -    0s
H    0     0                    10779.000000 8739.20556  18.9%     -    0s
     0     0 8739.20556    0   38 10779.0000 8739.20556  18.9%     -    0s
H    0     0                    10732.000000 8745.55182  18.5%     -    0s
H    0     0                    10717.000000 8745.55182  18.4%     -    0s
     0     0 8805.66840    0   29 10717.0000 8805.66840  17.8%     -    0s
     0     0 8815.00598    0   31 10717.0000 8815.00598  17.7%     -    0s
     0     0 8817.96662    0   29 10717.0000 8817.96662  17.7%     -    0s
     0     0 9011.54517    0   38 10717.0000 9011.54517  15.9%     -    0s
     0     0 9032.00334    0   40 10717.0000 9032.00334  15.7%     -    0s
     0     0 9033.68053    0   48 10717.0000 9033.68053  15.7%     -    0s
     0     0 9062.04678    0   25 10717.0000 9062.04678  15.4%     -    0s
     0     0 9080.17188    0   27 10717.0000 9080.17188  15.3%     -    0s
     0     0 9086.18801    0   30 10717.0000 9086.18801  15.2%     -    0s
     0     0 9109.91380    0   27 10717.0000 9109.91380  15.0%     -    0s
     0     0 9109.99622    0   27 10717.0000 9109.99622  15.0%     -    0s
H    0     0                    10678.000000 9109.99622  14.7%     -    0s
     0     2 9111.03544    0   27 10678.0000 9111.03544  14.7%     -    0s
H  117   133                    10674.000000 9221.84778  13.6%  41.7    0s
 34978 13029 10453.5084   29   19 10674.0000 10019.0734  6.14%  26.0    5s
 70460 16846 10487.0774   28   32 10674.0000 10214.4382  4.31%  27.3   10s
 111827 11858     cutoff   28      10674.0000 10398.2579  2.58%  27.4   15s

Cutting planes:
  Gomory: 2
  Lift-and-project: 19
  Cover: 70
  Implied bound: 39
  Dual implied bound: 31
  MIR: 189
  Flow cover: 281
  Flow path: 42
  Inf proof: 3
  Zero half: 8
  Network: 50
  Relax-and-lift: 4

Explored 136256 nodes (3524607 simplex iterations) in 17.29 seconds (23.36 work units)
Thread count was 16 (of 16 available processors)

Solution count 10: 10674 10678 10717 ... 11088

Optimal solution found (tolerance 1.00e-04)
Best objective 1.067400000000e+04, best bound 1.067400000000e+04, gap 0.0000%
